benchmark/results/graph__10-1000-0.10-02_16/graph__10-1000-0.10-02_16_QuintonOs_Benders_primal_sub.lp
\ This file has been generated by DOcplex
\ ENCODING=ISO-8859-1
\Problem name: Quinton Bounded Benders_primal_sub

Maximize
 obj: tau
Subject To
 c1: tau <= 0.000777604977
 c2: y_a0_proc_0 + y_a0_proc_1 - tau = 0
 c3: y_a0_proc_0 <= 1
 c4: y_a0_proc_1 <= 0
 c5: tau <= 0.001009081736
 c6: y_a1_proc_0 + y_a1_proc_1 - tau = 0
 c7: y_a1_proc_0 <= 0
 c8: y_a1_proc_1 <= 1
 c9: tau <= 0.000970873786
 c10: y_a2_proc_0 + y_a2_proc_1 - tau = 0
 c11: y_a2_proc_0 <= 0
 c12: y_a2_proc_1 <= 1
 c13: tau <= 0.000814995925
 c14: y_a3_proc_1 - tau = 0
 c15: y_a3_proc_1 <= 1
 c16: tau <= 0.001027749229
 c17: y_a4_proc_1 - tau = 0
 c18: y_a4_proc_1 <= 1
 c19: tau <= 0.001293661061
 c20: y_a5_proc_0 - tau = 0
 c21: y_a5_proc_0 <= 1
 c22: tau <= 0.001004016064
 c23: y_a6_proc_0 + y_a6_proc_1 - tau = 0
 c24: y_a6_proc_0 <= 0
 c25: y_a6_proc_1 <= 1
 c26: tau <= 0.001733102253
 c27: y_a7_proc_0 - tau = 0
 c28: y_a7_proc_0 <= 1
 c29: tau <= 0.000776397516
 c30: y_a8_proc_0 + y_a8_proc_1 - tau = 0
 c31: y_a8_proc_0 <= 1
 c32: y_a8_proc_1 <= 0
 c33: tau <= 0.000827814570
 c34: y_a9_proc_0 - tau = 0
 c35: y_a9_proc_0 <= 1
 c36: u_a0 - u_a1 - 1083 y_a1_proc_0 - 991 y_a1_proc_1 >= 0
 c37: u_a2 - u_a1 - 1083 y_a1_proc_0 - 991 y_a1_proc_1 >= 0
 c38: u_a3 - u_a2 - 1025 y_a2_proc_0 - 1030 y_a2_proc_1 >= -1
 c39: u_a0 - u_a4 - 973 y_a4_proc_1 >= 0
 c40: u_a5 - u_a4 - 973 y_a4_proc_1 >= 0
 c41: u_a6 - u_a5 - 773 y_a5_proc_0 >= -1
 c42: u_a3 - u_a7 - 577 y_a7_proc_0 >= -1
 c43: u_a5 - u_a8 - 1288 y_a8_proc_0 - 1082 y_a8_proc_1 >= 0
 c44: u_a1 - u_a9 - 1208 y_a9_proc_0 >= 0
 c45: u_a8 - u_a7 - 577 y_a7_proc_0 >= 0
 c46: u_a8 - u_a6 - 953 y_a6_proc_0 - 996 y_a6_proc_1 >= 0
 c47: u_a4 - u_a6 - 953 y_a6_proc_0 - 996 y_a6_proc_1 >= -1
 c48: u_a5 - u_a0 - 1286 y_a0_proc_0 - 1278 y_a0_proc_1 >= 0
 c49: u_a9 - u_a6 - 953 y_a6_proc_0 - 996 y_a6_proc_1 >= -1
 c50: u_a9 - u_a3 - 1227 y_a3_proc_1 >= 0
 c51: - 577 y_a7_proc_0 >= -1
 c52: - 973 y_a4_proc_1 >= -1
 c53: u_a9 - u_a8 - 1288 y_a8_proc_0 - 1082 y_a8_proc_1 >= -1
 c54: u_a7 - u_a3 - 1227 y_a3_proc_1 >= 0
 c55: u_a1 - u_a0 - 1278 y_a0_proc_1 >= -1300
 c56: u_a1 - u_a0 - 1286 y_a0_proc_0 >= -1300
 c57: u_a0 - u_a1 - 991 y_a1_proc_1 >= -1277
 c58: u_a0 - u_a1 - 1083 y_a1_proc_0 >= -1277
 c59: u_a2 - u_a0 - 1278 y_a0_proc_1 >= -1277
 c60: u_a2 - u_a0 - 1286 y_a0_proc_0 >= -1277
 c61: u_a0 - u_a2 - 1030 y_a2_proc_1 >= -1300
 c62: u_a0 - u_a2 - 1025 y_a2_proc_0 >= -1300
 c63: u_a3 - u_a0 - 1278 y_a0_proc_1 >= -1300
 c64: u_a0 - u_a3 - 1227 y_a3_proc_1 >= -1277
 c65: u_a4 - u_a0 - 1278 y_a0_proc_1 >= -1300
 c66: u_a0 - u_a4 - 973 y_a4_proc_1 >= -1277
 c67: u_a5 - u_a0 - 1286 y_a0_proc_0 >= 0
 c68: u_a0 - u_a5 - 773 y_a5_proc_0 >= -1
 c69: u_a6 - u_a0 - 1278 y_a0_proc_1 >= -1300
 c70: u_a6 - u_a0 - 1286 y_a0_proc_0 >= -1300
 c71: u_a0 - u_a6 - 996 y_a6_proc_1 >= -1277
 c72: u_a0 - u_a6 - 953 y_a6_proc_0 >= -1277
 c73: u_a7 - u_a0 - 1286 y_a0_proc_0 >= -1
 c74: u_a0 - u_a7 - 577 y_a7_proc_0 >= 0
 c75: u_a8 - u_a0 - 1278 y_a0_proc_1 >= -2577
 c76: u_a8 - u_a0 - 1286 y_a0_proc_0 >= -1
 c77: u_a0 - u_a8 - 1082 y_a8_proc_1 >= -2576
 c78: u_a0 - u_a8 - 1288 y_a8_proc_0 >= 0
 c79: u_a9 - u_a0 - 1286 y_a0_proc_0 >= -1
 c80: u_a0 - u_a9 - 1208 y_a9_proc_0 >= 0
 c81: u_a2 - u_a1 - 991 y_a1_proc_1 >= 0
 c82: u_a2 - u_a1 - 1083 y_a1_proc_0 >= -2576
 c83: u_a1 - u_a2 - 1030 y_a2_proc_1 >= -1
 c84: u_a1 - u_a2 - 1025 y_a2_proc_0 >= -2577
 c85: u_a3 - u_a1 - 991 y_a1_proc_1 >= -1
 c86: u_a1 - u_a3 - 1227 y_a3_proc_1 >= 0
 c87: u_a4 - u_a1 - 991 y_a1_proc_1 >= -1
 c88: u_a1 - u_a4 - 973 y_a4_proc_1 >= 0
 c89: u_a5 - u_a1 - 1083 y_a1_proc_0 >= -1277
 c90: u_a1 - u_a5 - 773 y_a5_proc_0 >= -1300
 c91: u_a6 - u_a1 - 991 y_a1_proc_1 >= -1
 c92: u_a6 - u_a1 - 1083 y_a1_proc_0 >= -2577
 c93: u_a1 - u_a6 - 996 y_a6_proc_1 >= 0
 c94: u_a1 - u_a6 - 953 y_a6_proc_0 >= -2576
 c95: u_a7 - u_a1 - 1083 y_a1_proc_0 >= -1277
 c96: u_a1 - u_a7 - 577 y_a7_proc_0 >= -1300
 c97: u_a8 - u_a1 - 991 y_a1_proc_1 >= -1277
 c98: u_a8 - u_a1 - 1083 y_a1_proc_0 >= -1277
 c99: u_a1 - u_a8 - 1082 y_a8_proc_1 >= -1300
 c100: u_a1 - u_a8 - 1288 y_a8_proc_0 >= -1300
 c101: u_a9 - u_a1 - 1083 y_a1_proc_0 >= -1300
 c102: u_a1 - u_a9 - 1208 y_a9_proc_0 >= -1277
 c103: u_a3 - u_a2 - 1030 y_a2_proc_1 >= -1
 c104: u_a2 - u_a3 - 1227 y_a3_proc_1 >= 0
 c105: u_a4 - u_a2 - 1030 y_a2_proc_1 >= -1
 c106: u_a2 - u_a4 - 973 y_a4_proc_1 >= 0
 c107: u_a5 - u_a2 - 1025 y_a2_proc_0 >= -1300
 c108: u_a2 - u_a5 - 773 y_a5_proc_0 >= -1277
 c109: u_a6 - u_a2 - 1030 y_a2_proc_1 >= -1
 c110: u_a6 - u_a2 - 1025 y_a2_proc_0 >= -2577
 c111: u_a2 - u_a6 - 996 y_a6_proc_1 >= 0
 c112: u_a2 - u_a6 - 953 y_a6_proc_0 >= -2576
 c113: u_a7 - u_a2 - 1025 y_a2_proc_0 >= -1277
 c114: u_a2 - u_a7 - 577 y_a7_proc_0 >= -1300
 c115: u_a8 - u_a2 - 1030 y_a2_proc_1 >= -1300
 c116: u_a8 - u_a2 - 1025 y_a2_proc_0 >= -1300
 c117: u_a2 - u_a8 - 1082 y_a8_proc_1 >= -1277
 c118: u_a2 - u_a8 - 1288 y_a8_proc_0 >= -1277
 c119: u_a9 - u_a2 - 1025 y_a2_proc_0 >= -1300
 c120: u_a2 - u_a9 - 1208 y_a9_proc_0 >= -1277
 c121: u_a4 - u_a3 - 1227 y_a3_proc_1 >= 0
 c122: u_a3 - u_a4 - 973 y_a4_proc_1 >= -1
 c123: u_a6 - u_a3 - 1227 y_a3_proc_1 >= 0
 c124: u_a3 - u_a6 - 996 y_a6_proc_1 >= -1
 c125: u_a8 - u_a3 - 1227 y_a3_proc_1 >= -1277
 c126: u_a3 - u_a8 - 1082 y_a8_proc_1 >= -1300
 c127: u_a6 - u_a4 - 973 y_a4_proc_1 >= 0
 c128: u_a4 - u_a6 - 996 y_a6_proc_1 >= -1
 c129: u_a8 - u_a4 - 973 y_a4_proc_1 >= -1300
 c130: u_a4 - u_a8 - 1082 y_a8_proc_1 >= -1277
 c131: u_a6 - u_a5 - 773 y_a5_proc_0 >= -1300
 c132: u_a5 - u_a6 - 953 y_a6_proc_0 >= -1277
 c133: u_a7 - u_a5 - 773 y_a5_proc_0 >= -1
 c134: u_a5 - u_a7 - 577 y_a7_proc_0 >= 0
 c135: u_a8 - u_a5 - 773 y_a5_proc_0 >= -1
 c136: u_a5 - u_a8 - 1288 y_a8_proc_0 >= 0
 c137: u_a9 - u_a5 - 773 y_a5_proc_0 >= -1
 c138: u_a5 - u_a9 - 1208 y_a9_proc_0 >= 0
 c139: u_a7 - u_a6 - 953 y_a6_proc_0 >= -1300
 c140: u_a6 - u_a7 - 577 y_a7_proc_0 >= -1277
 c141: u_a8 - u_a6 - 996 y_a6_proc_1 >= -1300
 c142: u_a8 - u_a6 - 953 y_a6_proc_0 >= -1300
 c143: u_a6 - u_a8 - 1082 y_a8_proc_1 >= -1277
 c144: u_a6 - u_a8 - 1288 y_a8_proc_0 >= -1277
 c145: u_a9 - u_a6 - 953 y_a6_proc_0 >= -1277
 c146: u_a6 - u_a9 - 1208 y_a9_proc_0 >= -1300
 c147: u_a8 - u_a7 - 577 y_a7_proc_0 >= 0
 c148: u_a7 - u_a8 - 1288 y_a8_proc_0 >= -1
 c149: u_a9 - u_a7 - 577 y_a7_proc_0 >= -1
 c150: u_a7 - u_a9 - 1208 y_a9_proc_0 >= 0
 c151: u_a9 - u_a8 - 1288 y_a8_proc_0 >= -1
 c152: u_a8 - u_a9 - 1208 y_a9_proc_0 >= 0

Bounds
End
