benchmark/results/graph__10-1000-0.10-02_16/graph__10-1000-0.10-02_16_QuintonOs_Benders_primal_sub.txt
solution for: Quinton Bounded Benders_primal_sub
objective: 0.000191681
status: OPTIMAL_SOLUTION(2)
u_a0=0.876
u_a1=0.613
u_a2=0.803
u_a4=0.235
u_a5=1.122
u_a6=0.422
u_a7=0.502
u_a8=0.613
u_a9=0.270
tau=0.000
y_a0_proc_0=0.000
y_a1_proc_1=0.000
y_a2_proc_1=0.000
y_a3_proc_1=0.000
y_a4_proc_1=0.000
y_a5_proc_0=0.000
y_a6_proc_1=0.000
y_a7_proc_0=0.000
y_a8_proc_0=0.000
y_a9_proc_0=0.000
